solution status: optimal solution found
objective value:                                    0
thing.lysis_in_hole_y                              12 	(obj:0)
thing.lysis_in_hole_z                              13 	(obj:0)
thing.cell_in_hole_y                               12 	(obj:0)
thing.cell_in_hole_z                               15 	(obj:0)
thing.wash_in_hole_y                               13 	(obj:0)
thing.wash_in_hole_z                               13 	(obj:0)
thing.bead_in_hole_y                               14 	(obj:0)
thing.bead_in_hole_z                               16 	(obj:0)
thing.buffer_in_hole_y                             12 	(obj:0)
thing.buffer_in_hole_z                             16 	(obj:0)
thing.elute_in_hole_y                               9 	(obj:0)
thing.elute_in_hole_z                              16 	(obj:0)
